num_offers = 35;
num_halls = 10;
start=[7,32,58,25,41,47,38,58,4,37,64,3,26,21,7,18,7,13,30,40,37,9,52,14,22,47,25,22,8,20,34,85,69,71,6];
end=[44,68,95,100,64,50,61,66,20,68,75,86,84,57,80,44,86,77,74,100,89,79,58,84,59,73,66,79,25,75,65,92,94,87,75];
price=[939,1821,1090,5292,834,48,2169,623,1444,2147,469,2019,4646,839,5754,517,1481,3235,1650,2622,2427,3061,90,7049,1790,1038,3356,676,1414,582,1733,319,1151,1161,4907];
requirement=[520,593,335,450,436,289,671,789,431,218,882,879,770,206,897,878,515,641,852,813,518,622,280,527,244,306,877,710,657,357,436,428,721,464,287];
capacity=[295,989,204,385,526,428,440,640,892,845];
